c Random generated cnf formula, satisfiable: false
p cnf 10 50
6 5 -2 0
1 2 3 0
10 7 5 0
-10 -6 1 0
-2 -8 -5 0
8 1 -7 0
5 8 9 0
-1 2 5 0
7 -10 -8 0
7 3 -2 0
-7 1 6 0
-4 -10 -3 0
-1 -5 -4 0
-10 -4 -5 0
8 3 7 0
-9 -3 -1 0
10 -9 2 0
7 8 -3 0
4 6 -10 0
-10 -2 -5 0
-9 -4 -5 0
-8 4 10 0
4 1 3 0
6 -3 7 0
4 6 -2 0
-6 3 -1 0
-1 8 10 0
-8 -5 -10 0
-8 3 -7 0
-8 9 -5 0
2 -5 7 0
-10 1 7 0
-4 8 -2 0
8 -7 4 0
-6 4 1 0
6 4 -2 0
-7 9 6 0
6 5 1 0
1 2 9 0
4 -8 9 0
-4 -10 -2 0
10 8 4 0
8 3 5 0
6 -2 -5 0
2 -4 -7 0
7 -2 8 0
-10 -2 -5 0
10 -4 9 0
-10 -6 -2 0
5 -7 -2 0
